computational_data/solutions/Reg3_n30_s1.sol
Optimal - objective value 13.00000000
      2 r_2                         1                       1
      6 r_6                         1                       1
      8 r_8                         1                       1
     11 r_11                        1                       1
     16 r_16                        1                       1
     17 r_17                        1                       1
     26 r_26                        1                       1
     35 b_5                         1                       1
     39 b_9                         1                       1
     42 b_12                        1                       1
     52 b_22                        1                       1
     57 b_27                        1                       1
     58 b_28                        1                       1
